\* produkcjaOkien *\
Maximize
Zysk: 3 aluminowe + 5 drewniane
Subject To
Fabryka_1: aluminowe <= 4
Fabryka_2: 2 drewniane <= 12
Fabryka_3: 3 aluminowe + 2 drewniane <= 18
Bounds
0 <= aluminowe
0 <= drewniane
Generals
aluminowe
drewniane
End
